SimulationType               MonteCarlo
NumberOfCycles               10000
NumberOfInitializationCycles 6000
RestartFile                  yes

Forcefield                   UFFTraPPE
CutOffVDW                  12.8
UseChargesFromCIFFile   yes
ChargeMethod            Ewald

Framework               0
FrameworkName           ABUWOJ_clean
UnitCells               2 2 2
ExternalTemperature     200
Movies                  True
WriteMoviesEvery        1
Component 0 MoleculeName                 CO2
            MoleculeDefinition           TraPPE
            TranslationProbability       1.0
            RotationProbability          1.0
            ReinsertionProbability       1.0
            CreateNumberOfMolecules      1
