SimulationType               MonteCarlo
NumberOfCycles               6000
NumberOfInitializationCycles 4000
PrintEvery                   10
PrintPropertiesEvery         10
RestartFile                  no

Forcefield                   UFFTraPPE

Framework               0
FrameworkName           ABETIN_clean
UseChargesFromCIFFile   yes
UnitCells               1 1 1
ExternalTemperature     298
ExternalPressure        10000

Component 0 MoleculeName                 CO2
            MoleculeDefinition           UFFTraPPE
            TranslationProbability       1.0
            RotationProbability          1.0
            ReinsertionProbability       1.0
            SwapProbability              1.0
            CreateNumberOfMolecules      0
