SimulationType               MonteCarlo
NumberOfCycles               10000
NumberOfInitializationCycles 0
PrintEvery                   100
RestartFile                  no

Forcefield                   UFFTraPPE
UseChargesFromCIFFile   yes
CutOff                  12.8
ChargeMethod            Ewald

Framework               0
FrameworkName           ABEXEN_clean
UnitCells               2 2 1
ExternalTemperature     298

Component 0 MoleculeName                 N2
            MoleculeDefinition           TraPPE
            WidomProbability              1.0
            CreateNumberOfMolecules      0
