SimulationType                  Minimization
NumberOfCycles                  5
NumberOfInitializationCycles    0
PrintEvery                      1
RestartFile                     yes

MaximumNumberOfMinimizationSteps    10000
RMSGraientTolerance             1e-6
MaxGradientTolerance            1e-6

Forcefield                      UFFTraPPE
CutOffVDW                       12.8
UseChargesFromCIFFile           yes
ChargeMethod                    Ewald

Framework                       0
FrameworkName                   ABETIN_clean
UnitCells                       1 1 1
ExternalTemperature             50

Movies                          yes
WriteMoviesEvery                1

Component 0 MoleculeName                 CO2
            MoleculeDefinition           UFFTraPPE
            TranslationProbability       1.0
            RotationProbability          1.0
            ReinsertionProbability       1.0
            SwapProbability              1.0
            CreateNumberOfMolecules      0
